	Costo	Nv	Tiempo
1	1356,01	12	5,905
2	1869,12	17	12,265
3	2423,05	17	22,032
4	3259,5	19	49,11
5	4019,74	22	88,143
6	1467,52	15	5,936
7	1915,28	21	12,718
8	2214,41	19	22,672
9	3108,59	28	50,986
10	3876,37	32	91,783
11	4278,98	22	31,89
12	2049,97	16	21,188
13	4072,66	21	31,97
14	2197,35	15	21,905
